Route #1: 26 38 11 19 27 29 48 21 61 42 43 41 56 23 63 33 6 4 
Route #2: 75 5 37 36 47 74 16 3 32 25 55 31 65 66 7 46 34 67 
Route #3: 17 40 18 50 9 72 58 35 8 52 57 15 20 70 60 71 69 64 22 2 68 
Route #4: 51 44 24 49 1 73 62 28 30 45 13 54 59 14 53 10 39 12 
cost 856.675
